
  22    4
   1   1   1   1

   0   0   0   0   0  13 2 3 4 5 6 7 8 9 10 18 19 20 21 
   2   0   1   1   0   6   16   15   14   13   12   11
   8   0   0   1   0   5   17   16   14   13   11
   8   1   0   0   1   2   14   12
   6   1   0   0   1   1   15
   2   1   1   1   1   1   13
   4   0   1   0   1   1   12
   8   1   1   0   0   1   11
   3   0   0   1   0   1   11
   2   0   0   1   1   1   11
   7   1   1   0   1   1   22
   5   0   0   0   1   1   22
   7   0   1   1   0   1   22
   1   0   1   0   1   1   22
   9   0   0   1   1   1   22
   6   0   1   0   0   1   22
   2   1   0   1   0   1   22
   1   1   0   0   1   1   22
   4   1   0   1   1   1   22
   6   1   0   0   1   1   22
   3   0   1   0   1   1   22
   0   0   0   0   0   0 
